outputs/case_172.model.txt
improvement_after_counseling = False
aml_improvement_completed = True
net_worth_ratio = 3/2
net_worth = -10
improvement_plan_approved = False
cannot_pay_debt = False
aml_internal_control_audit_established = False
capital_improvement_completed = False
failure_to_establish_or_implement_internal_control = True
aml_internal_control_audit_content_compliant = False
capital_adequacy_ratio = 45
risk_to_insured_rights = False
cannot_fulfill_contract = False
improvement_plan_requested = False
days_since_improvement_deadline = 91
profit_loss_accelerated_deterioration = False
capital_level_severe_and_not_completed_improvement_within_90_days = False
financial_or_business_deterioration = False
automatic_suspension_of_other_proceedings = False
internal_control_audit_established_and_executed = True
supervisor_inspection_applies = False
under_supervision = False
violated_article_143 = False
violation_of_loan_guarantee_rules = False
refusal_or_obstruction_of_inspection = False
violated_loan_approval_rules = False
violation_of_fund_management_rules = False
internal_handling_established_and_executed = True
prohibited_acts_without_supervisor_consent = False
delegation_of_supervision = False
major_event_affecting_financial_market = False
major_event_affecting_financial_market_and_not_completed_improvement = False
violation_of_article_143 = False
improvement_plan_required_and_approved = False
accelerated_deterioration_or_no_improvement_after_counseling = False
violated_business_scope_rules = False
violated_article_143_5_or_143_6_measures = False
consolidated_reorganization_request = False
violated_fund_management_rules = False
violation_of_loan_limit_rules = False
violation_of_internal_control_audit = False
violation_of_internal_handling = False
violated_reserve_rules = False
capital_level_severe_and_not_completed_improvement = True
capital_level = 4
exemption_from_gov_procurement_law = False
violation_of_loan_approval_rules = False
non_applicability_of_company_law_provisions = False
internal_control_audit_content_compliant = False
failure_to_improve_after_order = False
internal_control_audit_established = False
penalty = False
violated_loan_guarantee_rules = False
violated_loan_limit_rules = False
violation_of_reserve_rules = False
violation_of_business_scope_rules = False
regulatory_action_due_to_deterioration = False
regulation_of_supervision_and_takeover = False
extension_or_resubmission_of_improvement_plan = False
violation_of_article_143_5_or_143_6_measures = False
aml_refused_or_obstructed_inspection = False